Na2                                     
   1.00000000000000     
     4.2007071546264045    0.0000000000000000    0.0000000000000000
     0.0000000000000000    4.2007071546264045    0.0000000000000000
     0.0000000000000000    0.0000000000000000    4.2007071546264045
   Na
     2
Direct
  0.0000000000000000  0.0000000000000000  0.0000000000000000
  0.5000000000000000  0.5000000000000000  0.5000000000000000
 
  0.00000000E+00  0.00000000E+00  0.00000000E+00
  0.00000000E+00  0.00000000E+00  0.00000000E+00
