Ga4 As4
1.0
        5.7501821518         0.0000000000         0.0000000000
        0.0000000000         5.7501821518         0.0000000000
        0.0000000000         0.0000000000         5.7501821518
   Ga   As
    4    4
Direct
     0.000000000         0.000000000         0.000000000
     0.000000000         0.500000000         0.500000000
     0.500000000         0.000000000         0.500000000
     0.500000000         0.500000000         0.000000000
     0.250000000         0.250000000         0.250000000
     0.750000000         0.750000000         0.250000000
     0.750000000         0.250000000         0.750000000
     0.250000000         0.750000000         0.750000000

